; benchmark generated from python API
(set-info :status unknown)
(declare-fun strlen_85_64 () (_ BitVec 64))
(declare-fun args_1_8 () (_ BitVec 8))
(declare-fun strlen_83_64 () (_ BitVec 64))
(declare-fun strncmp_ret_84_32 () (_ BitVec 32))
(declare-fun strncmp_ret_86_32 () (_ BitVec 32))
(declare-fun filesize_file_0_/proc/self/loginuid_88_64 () (_ BitVec 64))
(declare-fun syscall_stub_ioctl_94_32 () (_ BitVec 32))
(declare-fun syscall_stub_newfstatat_119_64 () (_ BitVec 64))
(declare-fun syscall_stub_readlink_158_64 () (_ BitVec 64))
(declare-fun strlen_842_64 () (_ BitVec 64))
(declare-fun mem_7fffffffffef420_168_64 () (_ BitVec 64))
(declare-fun syscall_stub_newfstatat_187_64 () (_ BitVec 64))
(declare-fun mem_7fffffffffef038_272_64 () (_ BitVec 64))
(declare-fun mem_7fffffffffeefa8_273_64 () (_ BitVec 64))
(declare-fun mem_7fffffffffeefa0_293_64 () (_ BitVec 64))
(declare-fun mem_7fffffffffef030_294_64 () (_ BitVec 64))
(declare-fun mem_7fffffffffef048_341_32 () (_ BitVec 32))
(declare-fun mem_7fffffffffeefc8_390_64 () (_ BitVec 64))
(declare-fun mem_7fffffffffef058_391_64 () (_ BitVec 64))
(declare-fun access_2116_32 () (_ BitVec 32))
(declare-fun access_3089_32 () (_ BitVec 32))
(declare-fun mem_2c_3534_264 () (_ BitVec 264))
(declare-fun strlen_3535_64 () (_ BitVec 64))
(declare-fun strlen_4646_64 () (_ BitVec 64))
(declare-fun strlen_7111_64 () (_ BitVec 64))
(declare-fun mem_7fffffffffef740_3731_248 () (_ BitVec 248))
(declare-fun syscall_stub_connect_12476_64 () (_ BitVec 64))
(assert
 (let ((?x751 (bvadd (_ bv576460752303357826 64) strlen_85_64)))
 (let (($x69 (= (_ bv0 8) args_1_8)))
 (let ((?x46 (ite $x69 (_ bv576460752303357826 64) (_ bv576460752303357827 64))))
 (= ?x46 ?x751)))))
(assert
 (let ((?x101 (bvadd (_ bv576460752303357826 64) strlen_83_64)))
 (let (($x69 (= (_ bv0 8) args_1_8)))
 (let ((?x46 (ite $x69 (_ bv576460752303357826 64) (_ bv576460752303357827 64))))
 (= ?x46 ?x101)))))
(assert
 (let (($x104 (bvule (_ bv2 64) strlen_83_64)))
 (let (($x48 (= (_ bv2 64) strlen_83_64)))
 (let (($x122 (or $x48 $x104)))
 (let (($x123 (not $x122)))
 (let (($x57 (= (_ bv45 8) args_1_8)))
 (let (($x121 (not $x57)))
 (or $x121 $x123))))))))
(assert
 (= (_ bv1 32) strncmp_ret_84_32))
(assert
 (= (_ bv1 32) strncmp_ret_86_32))
(assert
 true)
(assert
 (let ((?x1236 ((_ extract 3 0) filesize_file_0_/proc/self/loginuid_88_64)))
 (let (($x1210 (bvsge (_ bv0 64) filesize_file_0_/proc/self/loginuid_88_64)))
 (let ((?x99 (ite $x1210 (_ bv0 4) ?x1236)))
 (let (($x1110 (bvule ?x99 (_ bv12 4))))
 (let (($x119703 (not $x1110)))
 (let ((?x1214 ((_ extract 63 63) filesize_file_0_/proc/self/loginuid_88_64)))
 (let (($x116245 (= (_ bv1 1) ?x1214)))
 (let (($x119835 (not $x116245)))
 (let ((?x1229 ((_ extract 63 4) filesize_file_0_/proc/self/loginuid_88_64)))
 (let (($x523 (= (_ bv0 60) ?x1229)))
 (let (($x516 (or $x1210 $x523)))
 (let (($x119942 (not $x516)))
 (let (($x119586 (or $x119942 $x119835 $x1210 $x119703)))
 (let (($x116912 (not $x119586)))
 (let (($x116860 (= (_ bv0 64) filesize_file_0_/proc/self/loginuid_88_64)))
 (let (($x117248 (or $x116860 $x1210)))
 (let (($x119482 (not $x117248)))
 (let (($x47155 (or $x119942 $x119703 $x119482)))
 (let (($x118344 (not $x47155)))
 (or $x118344 $x116912)))))))))))))))))))))
(assert
 (let (($x1210 (bvsge (_ bv0 64) filesize_file_0_/proc/self/loginuid_88_64)))
 (let ((?x1217 (ite $x1210 (_ bv0 64) filesize_file_0_/proc/self/loginuid_88_64)))
 (let ((?x1236 ((_ extract 3 0) filesize_file_0_/proc/self/loginuid_88_64)))
 (let ((?x99 (ite $x1210 (_ bv0 4) ?x1236)))
 (let (($x1110 (bvule ?x99 (_ bv12 4))))
 (let ((?x1229 ((_ extract 63 4) filesize_file_0_/proc/self/loginuid_88_64)))
 (let (($x523 (= (_ bv0 60) ?x1229)))
 (let (($x516 (or $x1210 $x523)))
 (let (($x975 (and $x516 $x1110)))
 (let ((?x1169 (ite $x975 ?x1217 (_ bv12 64))))
 (bvule ?x1169 (_ bv18446744073709547520 64)))))))))))))
(assert
 (let ((?x48102 ((_ extract 31 31) syscall_stub_ioctl_94_32)))
 (= (_ bv0 1) ?x48102)))
(assert
 (let (($x3051 (= (_ bv0 32) syscall_stub_ioctl_94_32)))
 (not $x3051)))
(assert
 (let ((?x52872 ((_ extract 31 0) syscall_stub_newfstatat_119_64)))
 (bvule ?x52872 (_ bv4294963200 32))))
(assert
 (= (_ bv13 64) syscall_stub_readlink_158_64))
(assert
 (let ((?x441255 (bvadd (_ bv576460752303354917 64) strlen_842_64)))
 (let ((?x119659 ((_ extract 63 56) mem_7fffffffffef420_168_64)))
 (let (($x441241 (= (_ bv0 8) ?x119659)))
 (let ((?x114108 (ite $x441241 (_ bv576460752303354919 64) (_ bv576460752303354920 64))))
 (let ((?x113788 ((_ extract 55 48) mem_7fffffffffef420_168_64)))
 (let (($x441239 (= (_ bv0 8) ?x113788)))
 (let ((?x40247 (ite $x441239 (_ bv576460752303354918 64) ?x114108)))
 (let ((?x68316 ((_ extract 47 40) mem_7fffffffffef420_168_64)))
 (let (($x441237 (= (_ bv0 8) ?x68316)))
 (let ((?x3236 (ite $x441237 (_ bv576460752303354917 64) ?x40247)))
 (= ?x3236 ?x441255))))))))))))
(assert
 (let ((?x46334 ((_ extract 7 0) mem_7fffffffffef420_168_64)))
 (= (_ bv47 8) ?x46334)))
(assert
 (let ((?x441444 (bvadd (_ bv1 64) strlen_842_64)))
 (let ((?x442010 ((_ extract 63 3) ?x441444)))
 (= (_ bv0 61) ?x442010))))
(assert
 (let ((?x441926 ((_ extract 2 0) strlen_842_64)))
 (let ((?x441872 (bvadd (_ bv1 3) ?x441926)))
 (bvule ?x441872 (_ bv4 3)))))
(assert
 (let ((?x441444 (bvadd (_ bv1 64) strlen_842_64)))
 (let (($x441412 (bvule (_ bv31 64) strlen_842_64)))
 (let (($x441420 (bvule strlen_842_64 (_ bv18446744073709551614 64))))
 (let (($x441918 (and $x441420 $x441412)))
 (let ((?x442099 (ite $x441918 (_ bv32 64) ?x441444)))
 (bvule (_ bv1 64) ?x442099)))))))
(assert
 (let (($x441412 (bvule (_ bv31 64) strlen_842_64)))
 (let (($x441584 (not $x441412)))
 (let (($x441420 (bvule strlen_842_64 (_ bv18446744073709551614 64))))
 (let (($x441580 (not $x441420)))
 (or $x441580 $x441584))))))
(assert
 (let ((?x118302 ((_ extract 31 0) syscall_stub_newfstatat_187_64)))
 (bvule ?x118302 (_ bv4294963200 32))))
(assert
 (= mem_7fffffffffeefa8_273_64 mem_7fffffffffef038_272_64))
(assert
 (= mem_7fffffffffef030_294_64 mem_7fffffffffeefa0_293_64))
(assert
 (let ((?x276820 ((_ extract 15 12) mem_7fffffffffef048_341_32)))
 (= (_ bv2 4) ?x276820)))
(assert
 (= mem_7fffffffffef058_391_64 mem_7fffffffffeefc8_390_64))
(assert
 (= (_ bv0 32) access_2116_32))
(assert
 (= (_ bv0 32) access_3089_32))
(assert
 (let ((?x559435 ((_ extract 23 16) mem_2c_3534_264)))
 (let (($x559926 (= (_ bv0 8) ?x559435)))
 (not $x559926))))
(assert
 (let ((?x567917 ((_ extract 15 8) mem_2c_3534_264)))
 (= (_ bv0 8) ?x567917)))
(assert
 (let ((?x567951 ((_ extract 31 24) mem_2c_3534_264)))
 (let (($x567944 (= (_ bv0 8) ?x567951)))
 (not $x567944))))
(assert
 (let ((?x572037 ((_ extract 39 32) mem_2c_3534_264)))
 (let (($x571790 (= (_ bv0 8) ?x572037)))
 (not $x571790))))
(assert
 (let ((?x559445 ((_ extract 47 40) mem_2c_3534_264)))
 (let (($x558767 (= (_ bv0 8) ?x559445)))
 (not $x558767))))
(assert
 (let ((?x559473 ((_ extract 55 48) mem_2c_3534_264)))
 (let (($x547478 (= (_ bv0 8) ?x559473)))
 (not $x547478))))
(assert
 (let ((?x559655 ((_ extract 63 56) mem_2c_3534_264)))
 (let (($x571410 (= (_ bv0 8) ?x559655)))
 (not $x571410))))
(assert
 (let ((?x571434 ((_ extract 71 64) mem_2c_3534_264)))
 (let (($x556665 (= (_ bv0 8) ?x571434)))
 (not $x556665))))
(assert
 (let ((?x571433 ((_ extract 79 72) mem_2c_3534_264)))
 (let (($x803 (= (_ bv0 8) ?x571433)))
 (not $x803))))
(assert
 (let ((?x568055 ((_ extract 87 80) mem_2c_3534_264)))
 (let (($x571264 (= (_ bv0 8) ?x568055)))
 (not $x571264))))
(assert
 (let ((?x559757 ((_ extract 95 88) mem_2c_3534_264)))
 (let (($x571372 (= (_ bv0 8) ?x559757)))
 (not $x571372))))
(assert
 (let ((?x559992 ((_ extract 103 96) mem_2c_3534_264)))
 (let (($x571245 (= (_ bv0 8) ?x559992)))
 (not $x571245))))
(assert
 (let ((?x571205 ((_ extract 111 104) mem_2c_3534_264)))
 (let (($x571393 (= (_ bv0 8) ?x571205)))
 (not $x571393))))
(assert
 (let ((?x559947 ((_ extract 119 112) mem_2c_3534_264)))
 (let (($x571397 (= (_ bv0 8) ?x559947)))
 (not $x571397))))
(assert
 (let ((?x572035 ((_ extract 127 120) mem_2c_3534_264)))
 (let (($x560000 (= (_ bv0 8) ?x572035)))
 (not $x560000))))
(assert
 (let ((?x507556 ((_ extract 135 128) mem_2c_3534_264)))
 (let (($x571316 (= (_ bv0 8) ?x507556)))
 (not $x571316))))
(assert
 (let ((?x568091 ((_ extract 143 136) mem_2c_3534_264)))
 (let (($x571239 (= (_ bv0 8) ?x568091)))
 (not $x571239))))
(assert
 (let ((?x571296 ((_ extract 151 144) mem_2c_3534_264)))
 (let (($x571277 (= (_ bv0 8) ?x571296)))
 (not $x571277))))
(assert
 (let ((?x559485 ((_ extract 159 152) mem_2c_3534_264)))
 (let (($x571220 (= (_ bv0 8) ?x559485)))
 (not $x571220))))
(assert
 (let ((?x567889 ((_ extract 167 160) mem_2c_3534_264)))
 (let (($x558547 (= (_ bv0 8) ?x567889)))
 (not $x558547))))
(assert
 (let ((?x567895 ((_ extract 175 168) mem_2c_3534_264)))
 (let (($x556610 (= (_ bv0 8) ?x567895)))
 (not $x556610))))
(assert
 (let ((?x571314 ((_ extract 183 176) mem_2c_3534_264)))
 (let (($x571324 (= (_ bv0 8) ?x571314)))
 (not $x571324))))
(assert
 (let ((?x567943 ((_ extract 191 184) mem_2c_3534_264)))
 (let (($x559883 (= (_ bv0 8) ?x567943)))
 (not $x559883))))
(assert
 (let ((?x571437 ((_ extract 199 192) mem_2c_3534_264)))
 (let (($x560778 (= (_ bv0 8) ?x571437)))
 (not $x560778))))
(assert
 (let ((?x571315 ((_ extract 207 200) mem_2c_3534_264)))
 (let (($x556551 (= (_ bv0 8) ?x571315)))
 (not $x556551))))
(assert
 (let ((?x571232 ((_ extract 215 208) mem_2c_3534_264)))
 (let (($x550235 (= (_ bv0 8) ?x571232)))
 (not $x550235))))
(assert
 (let ((?x571444 ((_ extract 223 216) mem_2c_3534_264)))
 (let (($x551701 (= (_ bv0 8) ?x571444)))
 (not $x551701))))
(assert
 (let ((?x558656 ((_ extract 231 224) mem_2c_3534_264)))
 (let (($x568033 (= (_ bv0 8) ?x558656)))
 (not $x568033))))
(assert
 (let ((?x559483 ((_ extract 239 232) mem_2c_3534_264)))
 (let (($x559312 (= (_ bv0 8) ?x559483)))
 (not $x559312))))
(assert
 (let ((?x571254 ((_ extract 247 240) mem_2c_3534_264)))
 (let (($x567977 (= (_ bv0 8) ?x571254)))
 (not $x567977))))
(assert
 (let ((?x556656 ((_ extract 255 248) mem_2c_3534_264)))
 (let (($x556667 (= (_ bv0 8) ?x556656)))
 (not $x556667))))
(assert
 (let ((?x568131 ((_ extract 263 256) mem_2c_3534_264)))
 (let (($x571334 (= (_ bv0 8) ?x568131)))
 (not $x571334))))
(assert
 (= (_ bv31 64) strlen_3535_64))
(assert
 (= (_ bv31 64) strlen_4646_64))
(assert
 (let ((?x738807 ((_ extract 7 0) mem_7fffffffffef740_3731_248)))
 (let ((?x739811 ((_ extract 15 0) mem_7fffffffffef740_3731_248)))
 (let ((?x739128 ((_ extract 23 0) mem_7fffffffffef740_3731_248)))
 (let ((?x562928 ((_ extract 31 0) mem_7fffffffffef740_3731_248)))
 (let ((?x738004 ((_ extract 39 0) mem_7fffffffffef740_3731_248)))
 (let ((?x739125 ((_ extract 47 0) mem_7fffffffffef740_3731_248)))
 (let ((?x467420 ((_ extract 55 0) mem_7fffffffffef740_3731_248)))
 (let ((?x691119 ((_ extract 63 0) mem_7fffffffffef740_3731_248)))
 (let ((?x563232 ((_ extract 71 0) mem_7fffffffffef740_3731_248)))
 (let ((?x896721 ((_ extract 79 0) mem_7fffffffffef740_3731_248)))
 (let ((?x490270 ((_ extract 87 0) mem_7fffffffffef740_3731_248)))
 (let ((?x690989 ((_ extract 95 0) mem_7fffffffffef740_3731_248)))
 (let ((?x894551 ((_ extract 103 0) mem_7fffffffffef740_3731_248)))
 (let ((?x490263 ((_ extract 111 0) mem_7fffffffffef740_3731_248)))
 (let ((?x490278 ((_ extract 119 0) mem_7fffffffffef740_3731_248)))
 (let ((?x896703 ((_ extract 127 0) mem_7fffffffffef740_3731_248)))
 (let ((?x490235 ((_ extract 135 0) mem_7fffffffffef740_3731_248)))
 (let ((?x478545 ((_ extract 143 0) mem_7fffffffffef740_3731_248)))
 (let ((?x894594 ((_ extract 151 0) mem_7fffffffffef740_3731_248)))
 (let ((?x894626 ((_ extract 159 0) mem_7fffffffffef740_3731_248)))
 (let ((?x896655 ((_ extract 167 0) mem_7fffffffffef740_3731_248)))
 (let ((?x490268 ((_ extract 175 0) mem_7fffffffffef740_3731_248)))
 (let ((?x490281 ((_ extract 183 0) mem_7fffffffffef740_3731_248)))
 (let ((?x739458 ((_ extract 191 0) mem_7fffffffffef740_3731_248)))
 (let ((?x739973 ((_ extract 199 0) mem_7fffffffffef740_3731_248)))
 (let ((?x739200 ((_ extract 207 0) mem_7fffffffffef740_3731_248)))
 (let ((?x739298 ((_ extract 215 0) mem_7fffffffffef740_3731_248)))
 (let ((?x739967 ((_ extract 223 0) mem_7fffffffffef740_3731_248)))
 (let ((?x739204 ((_ extract 231 0) mem_7fffffffffef740_3731_248)))
 (let ((?x739295 ((_ extract 239 0) mem_7fffffffffef740_3731_248)))
 (let ((?x894786 ((_ extract 263 16) mem_2c_3534_264)))
 (let (($x479861 (= (_ bv1 64) strlen_3535_64)))
 (let ((?x738840 (ite $x479861 ?x894786 mem_7fffffffffef740_3731_248)))
 (let ((?x739628 ((_ extract 247 240) ?x738840)))
 (let ((?x739958 (concat ?x739628 ?x739295)))
 (let (($x894427 (= (_ bv2 64) strlen_3535_64)))
 (let ((?x739514 (ite $x894427 ?x894786 ?x739958)))
 (let ((?x690909 ((_ extract 247 232) ?x739514)))
 (let ((?x739744 (concat ?x690909 ?x739204)))
 (let (($x894410 (= (_ bv3 64) strlen_3535_64)))
 (let ((?x738851 (ite $x894410 ?x894786 ?x739744)))
 (let ((?x739662 ((_ extract 247 224) ?x738851)))
 (let ((?x690901 (concat ?x739662 ?x739967)))
 (let (($x894457 (= (_ bv4 64) strlen_3535_64)))
 (let ((?x739891 (ite $x894457 ?x894786 ?x690901)))
 (let ((?x739961 ((_ extract 247 216) ?x739891)))
 (let ((?x561942 (concat ?x739961 ?x739298)))
 (let (($x894434 (= (_ bv5 64) strlen_3535_64)))
 (let ((?x450638 (ite $x894434 ?x894786 ?x561942)))
 (let ((?x467550 ((_ extract 247 208) ?x450638)))
 (let ((?x738875 (concat ?x467550 ?x739200)))
 (let (($x890941 (= (_ bv6 64) strlen_3535_64)))
 (let ((?x738877 (ite $x890941 ?x894786 ?x738875)))
 (let ((?x740065 ((_ extract 247 200) ?x738877)))
 (let ((?x740113 (concat ?x740065 ?x739973)))
 (let (($x478844 (= (_ bv7 64) strlen_3535_64)))
 (let ((?x739769 (ite $x478844 ?x894786 ?x740113)))
 (let ((?x563059 ((_ extract 247 192) ?x739769)))
 (let ((?x467586 (concat ?x563059 ?x739458)))
 (let (($x481669 (= (_ bv8 64) strlen_3535_64)))
 (let ((?x893066 (ite $x481669 ?x894786 ?x467586)))
 (let ((?x734012 ((_ extract 247 184) ?x893066)))
 (let ((?x467627 (concat ?x734012 ?x490281)))
 (let (($x475466 (= (_ bv9 64) strlen_3535_64)))
 (let ((?x490255 (ite $x475466 ?x894786 ?x467627)))
 (let ((?x479389 ((_ extract 247 176) ?x490255)))
 (let ((?x490209 (concat ?x479389 ?x490268)))
 (let (($x478215 (= (_ bv10 64) strlen_3535_64)))
 (let ((?x490277 (ite $x478215 ?x894786 ?x490209)))
 (let ((?x478147 ((_ extract 247 168) ?x490277)))
 (let ((?x894660 (concat ?x478147 ?x896655)))
 (let (($x893721 (= (_ bv11 64) strlen_3535_64)))
 (let ((?x896657 (ite $x893721 ?x894786 ?x894660)))
 (let ((?x645374 ((_ extract 247 160) ?x896657)))
 (let ((?x490274 (concat ?x645374 ?x894626)))
 (let (($x479042 (= (_ bv12 64) strlen_3535_64)))
 (let ((?x894853 (ite $x479042 ?x894786 ?x490274)))
 (let ((?x478781 ((_ extract 247 152) ?x894853)))
 (let ((?x894273 (concat ?x478781 ?x894594)))
 (let (($x894936 (= (_ bv13 64) strlen_3535_64)))
 (let ((?x558779 (ite $x894936 ?x894786 ?x894273)))
 (let ((?x896658 ((_ extract 247 144) ?x558779)))
 (let ((?x894374 (concat ?x896658 ?x478545)))
 (let (($x477058 (= (_ bv14 64) strlen_3535_64)))
 (let ((?x894806 (ite $x477058 ?x894786 ?x894374)))
 (let ((?x738549 ((_ extract 247 136) ?x894806)))
 (let ((?x563104 (concat ?x738549 ?x490235)))
 (let (($x894261 (= (_ bv15 64) strlen_3535_64)))
 (let ((?x738765 (ite $x894261 ?x894786 ?x563104)))
 (let ((?x894379 ((_ extract 247 128) ?x738765)))
 (let ((?x490279 (concat ?x894379 ?x896703)))
 (let (($x894359 (= (_ bv16 64) strlen_3535_64)))
 (let ((?x275310 (ite $x894359 ?x894786 ?x490279)))
 (let ((?x559556 ((_ extract 247 120) ?x275310)))
 (let ((?x894752 (concat ?x559556 ?x490278)))
 (let (($x480027 (= (_ bv17 64) strlen_3535_64)))
 (let ((?x563542 (ite $x480027 ?x894786 ?x894752)))
 (let ((?x477186 ((_ extract 247 112) ?x563542)))
 (let ((?x894277 (concat ?x477186 ?x490263)))
 (let (($x478029 (= (_ bv18 64) strlen_3535_64)))
 (let ((?x490264 (ite $x478029 ?x894786 ?x894277)))
 (let ((?x480001 ((_ extract 247 104) ?x490264)))
 (let ((?x390769 (concat ?x480001 ?x894551)))
 (let (($x739059 (= (_ bv19 64) strlen_3535_64)))
 (let ((?x895148 (ite $x739059 ?x894786 ?x390769)))
 (let ((?x896711 ((_ extract 247 96) ?x895148)))
 (let ((?x479993 (concat ?x896711 ?x690989)))
 (let (($x478746 (= (_ bv20 64) strlen_3535_64)))
 (let ((?x559722 (ite $x478746 ?x894786 ?x479993)))
 (let ((?x735119 ((_ extract 247 88) ?x559722)))
 (let ((?x895193 (concat ?x735119 ?x490270)))
 (let (($x471885 (= (_ bv21 64) strlen_3535_64)))
 (let ((?x490271 (ite $x471885 ?x894786 ?x895193)))
 (let ((?x734705 ((_ extract 247 80) ?x490271)))
 (let ((?x894861 (concat ?x734705 ?x896721)))
 (let (($x478492 (= (_ bv22 64) strlen_3535_64)))
 (let ((?x894533 (ite $x478492 ?x894786 ?x894861)))
 (let ((?x896709 ((_ extract 247 72) ?x894533)))
 (let ((?x645556 (concat ?x896709 ?x563232)))
 (let (($x739368 (= (_ bv23 64) strlen_3535_64)))
 (let ((?x740171 (ite $x739368 ?x894786 ?x645556)))
 (let ((?x738732 ((_ extract 247 64) ?x740171)))
 (let ((?x738208 (concat ?x738732 ?x691119)))
 (let (($x739411 (= (_ bv24 64) strlen_3535_64)))
 (let ((?x736768 (ite $x739411 ?x894786 ?x738208)))
 (let ((?x645458 ((_ extract 247 56) ?x736768)))
 (let ((?x562970 (concat ?x645458 ?x467420)))
 (let (($x691036 (= (_ bv25 64) strlen_3535_64)))
 (let ((?x690947 (ite $x691036 ?x894786 ?x562970)))
 (let ((?x740139 ((_ extract 247 48) ?x690947)))
 (let ((?x739636 (concat ?x740139 ?x739125)))
 (let (($x739859 (= (_ bv26 64) strlen_3535_64)))
 (let ((?x740192 (ite $x739859 ?x894786 ?x739636)))
 (let ((?x740194 ((_ extract 247 40) ?x740192)))
 (let ((?x738296 (concat ?x740194 ?x738004)))
 (let (($x738916 (= (_ bv27 64) strlen_3535_64)))
 (let ((?x607374 (ite $x738916 ?x894786 ?x738296)))
 (let ((?x562974 ((_ extract 247 32) ?x607374)))
 (let ((?x690860 (concat ?x562974 ?x562928)))
 (let (($x738361 (= (_ bv28 64) strlen_3535_64)))
 (let ((?x645504 (ite $x738361 ?x894786 ?x690860)))
 (let ((?x739001 ((_ extract 247 24) ?x645504)))
 (let ((?x691017 (concat ?x739001 ?x739128)))
 (let (($x740119 (= (_ bv29 64) strlen_3535_64)))
 (let ((?x738656 (ite $x740119 ?x894786 ?x691017)))
 (let ((?x738301 ((_ extract 247 16) ?x738656)))
 (let ((?x739889 (concat ?x738301 ?x739811)))
 (let (($x563496 (= (_ bv30 64) strlen_3535_64)))
 (let ((?x738863 (ite $x563496 ?x894786 ?x739889)))
 (let ((?x739814 ((_ extract 247 8) ?x738863)))
 (let ((?x739844 (concat ?x739814 ?x738807)))
 (let (($x476202 (= (_ bv31 64) strlen_3535_64)))
 (let ((?x563251 (ite $x476202 ?x894786 ?x739844)))
 (let ((?x563598 ((_ extract 7 0) ?x563251)))
 (let (($x1240304 (= (_ bv0 8) ?x563598)))
 (let ((?x896806 (ite $x1240304 (_ bv576460752303355742 64) (_ bv576460752303355743 64))))
 (let ((?x740017 ((_ extract 15 8) ?x563251)))
 (let (($x1240037 (= (_ bv0 8) ?x740017)))
 (let ((?x1238467 (ite $x1240037 (_ bv576460752303355741 64) ?x896806)))
 (let ((?x1240057 ((_ extract 23 16) ?x563251)))
 (let (($x1239988 (= (_ bv0 8) ?x1240057)))
 (let ((?x690939 (ite $x1239988 (_ bv576460752303355740 64) ?x1238467)))
 (let ((?x1240134 ((_ extract 31 24) ?x563251)))
 (let (($x1239949 (= (_ bv0 8) ?x1240134)))
 (let ((?x559069 (ite $x1239949 (_ bv576460752303355739 64) ?x690939)))
 (let ((?x562159 ((_ extract 39 32) ?x563251)))
 (let (($x896792 (= (_ bv0 8) ?x562159)))
 (let ((?x476182 (ite $x896792 (_ bv576460752303355738 64) ?x559069)))
 (let ((?x896702 ((_ extract 47 40) ?x563251)))
 (let (($x896732 (= (_ bv0 8) ?x896702)))
 (let ((?x739478 (ite $x896732 (_ bv576460752303355737 64) ?x476182)))
 (let ((?x1240149 ((_ extract 55 48) ?x563251)))
 (let (($x896679 (= (_ bv0 8) ?x1240149)))
 (let ((?x475996 (ite $x896679 (_ bv576460752303355736 64) ?x739478)))
 (let ((?x1238507 ((_ extract 63 56) ?x563251)))
 (let (($x740403 (= (_ bv0 8) ?x1238507)))
 (let ((?x690892 (ite $x740403 (_ bv576460752303355735 64) ?x475996)))
 (let ((?x896674 ((_ extract 71 64) ?x563251)))
 (let (($x740332 (= (_ bv0 8) ?x896674)))
 (let ((?x738428 (ite $x740332 (_ bv576460752303355734 64) ?x690892)))
 (let ((?x1240283 ((_ extract 79 72) ?x563251)))
 (let (($x740219 (= (_ bv0 8) ?x1240283)))
 (let ((?x738452 (ite $x740219 (_ bv576460752303355733 64) ?x738428)))
 (let ((?x896754 ((_ extract 87 80) ?x563251)))
 (let (($x740205 (= (_ bv0 8) ?x896754)))
 (let ((?x738508 (ite $x740205 (_ bv576460752303355732 64) ?x738452)))
 (let ((?x1240127 ((_ extract 95 88) ?x563251)))
 (let (($x740198 (= (_ bv0 8) ?x1240127)))
 (let ((?x738529 (ite $x740198 (_ bv576460752303355731 64) ?x738508)))
 (let ((?x738944 ((_ extract 103 96) ?x563251)))
 (let (($x740006 (= (_ bv0 8) ?x738944)))
 (let ((?x738616 (ite $x740006 (_ bv576460752303355730 64) ?x738529)))
 (let ((?x1238337 ((_ extract 111 104) ?x563251)))
 (let (($x740000 (= (_ bv0 8) ?x1238337)))
 (let ((?x738637 (ite $x740000 (_ bv576460752303355729 64) ?x738616)))
 (let ((?x739436 ((_ extract 119 112) ?x563251)))
 (let (($x739483 (= (_ bv0 8) ?x739436)))
 (let ((?x738798 (ite $x739483 (_ bv576460752303355728 64) ?x738637)))
 (let ((?x1239975 ((_ extract 127 120) ?x563251)))
 (let (($x739351 (= (_ bv0 8) ?x1239975)))
 (let ((?x738838 (ite $x739351 (_ bv576460752303355727 64) ?x738798)))
 (let ((?x1240251 ((_ extract 135 128) ?x563251)))
 (let (($x739119 (= (_ bv0 8) ?x1240251)))
 (let ((?x738866 (ite $x739119 (_ bv576460752303355726 64) ?x738838)))
 (let ((?x1240236 ((_ extract 143 136) ?x563251)))
 (let (($x738891 (= (_ bv0 8) ?x1240236)))
 (let ((?x738887 (ite $x738891 (_ bv576460752303355725 64) ?x738866)))
 (let ((?x1240168 ((_ extract 151 144) ?x563251)))
 (let (($x738704 (= (_ bv0 8) ?x1240168)))
 (let ((?x738892 (ite $x738704 (_ bv576460752303355724 64) ?x738887)))
 (let ((?x1238267 ((_ extract 159 152) ?x563251)))
 (let (($x738441 (= (_ bv0 8) ?x1238267)))
 (let ((?x739022 (ite $x738441 (_ bv576460752303355723 64) ?x738892)))
 (let ((?x1240119 ((_ extract 167 160) ?x563251)))
 (let (($x737789 (= (_ bv0 8) ?x1240119)))
 (let ((?x739064 (ite $x737789 (_ bv576460752303355722 64) ?x739022)))
 (let ((?x1240223 ((_ extract 175 168) ?x563251)))
 (let (($x562783 (= (_ bv0 8) ?x1240223)))
 (let ((?x739363 (ite $x562783 (_ bv576460752303355721 64) ?x739064)))
 (let ((?x1240074 ((_ extract 183 176) ?x563251)))
 (let (($x740265 (= (_ bv0 8) ?x1240074)))
 (let ((?x739642 (ite $x740265 (_ bv576460752303355720 64) ?x739363)))
 (let ((?x467479 ((_ extract 191 184) ?x563251)))
 (let (($x563281 (= (_ bv0 8) ?x467479)))
 (let ((?x739709 (ite $x563281 (_ bv576460752303355719 64) ?x739642)))
 (let ((?x686683 ((_ extract 199 192) ?x563251)))
 (let (($x737959 (= (_ bv0 8) ?x686683)))
 (let ((?x739745 (ite $x737959 (_ bv576460752303355718 64) ?x739709)))
 (let ((?x896746 ((_ extract 207 200) ?x563251)))
 (let (($x691038 (= (_ bv0 8) ?x896746)))
 (let ((?x739754 (ite $x691038 (_ bv576460752303355717 64) ?x739745)))
 (let ((?x896738 ((_ extract 215 208) ?x563251)))
 (let (($x563272 (= (_ bv0 8) ?x896738)))
 (let ((?x739777 (ite $x563272 (_ bv576460752303355716 64) ?x739754)))
 (let ((?x738468 ((_ extract 223 216) ?x563251)))
 (let (($x563056 (= (_ bv0 8) ?x738468)))
 (let ((?x739786 (ite $x563056 (_ bv576460752303355715 64) ?x739777)))
 (let ((?x739627 ((_ extract 231 224) ?x563251)))
 (let (($x562596 (= (_ bv0 8) ?x739627)))
 (let ((?x739792 (ite $x562596 (_ bv576460752303355714 64) ?x739786)))
 (let ((?x739057 ((_ extract 239 232) ?x563251)))
 (let (($x562210 (= (_ bv0 8) ?x739057)))
 (let ((?x739878 (ite $x562210 (_ bv576460752303355713 64) ?x739792)))
 (let ((?x739866 ((_ extract 247 240) ?x563251)))
 (let (($x738839 (= (_ bv0 8) ?x739866)))
 (let ((?x739993 (ite $x738839 (_ bv576460752303355712 64) ?x739878)))
 (let ((?x1239776 (bvsub ?x739993 (_ bv576460752303355712 64))))
 (= ?x1239776 strlen_7111_64)))))))))))))))))))))))))))))))))))))))))))))))))))))))))))))))))))))))))))))))))))))))))))))))))))))))))))))))))))))))))))))))))))))))))))))))))))))))))))))))))))))))))))))))))))))))))))))))))))))))))))))))))))))))))))))))))))))))))))))))))))))))))
(assert
 (bvule syscall_stub_connect_12476_64 (_ bv18446744073709547520 64)))
(assert
 (let ((?x2289385 ((_ extract 31 0) syscall_stub_connect_12476_64)))
 (let ((?x2288011 ((_ zero_extend 32) ?x2289385)))
 (let ((?x2295256 (bvlshr ?x2288011 (_ bv31 64))))
 (let ((?x2295726 ((_ extract 0 0) ?x2295256)))
 (let ((?x2285279 (bvand ?x2295726 (_ bv1 1))))
 (= (_ bv0 1) ?x2285279)))))))
(minimize syscall_stub_newfstatat_187_64)
(minimize mem_7fffffffffef048_341_32)
(maximize mem_7fffffffffef030_294_64)
(maximize syscall_stub_readlink_158_64)
(minimize mem_7fffffffffeefa0_293_64)
(maximize strlen_3535_64)
(maximize syscall_stub_newfstatat_119_64)
(minimize syscall_stub_readlink_158_64)
(minimize mem_7fffffffffef030_294_64)
(maximize mem_7fffffffffef038_272_64)
(minimize args_1_8)
(minimize mem_2c_3534_264)
(maximize syscall_stub_ioctl_94_32)
(maximize syscall_stub_connect_12476_64)
(minimize strlen_3535_64)
(maximize strlen_4646_64)
(maximize access_3089_32)
(minimize mem_7fffffffffeefc8_390_64)
(minimize mem_7fffffffffef420_168_64)
(minimize strlen_842_64)
(minimize mem_7fffffffffeefa8_273_64)
(maximize mem_7fffffffffef058_391_64)
(minimize strlen_4646_64)
(maximize strlen_83_64)
(maximize strlen_85_64)
(maximize mem_7fffffffffef048_341_32)
(maximize mem_7fffffffffeefa8_273_64)
(minimize mem_7fffffffffef038_272_64)
(maximize strncmp_ret_84_32)
(maximize mem_7fffffffffeefa0_293_64)
(maximize mem_7fffffffffeefc8_390_64)
(minimize syscall_stub_connect_12476_64)
(maximize filesize_file_0_/proc/self/loginuid_88_64)
(maximize mem_2c_3534_264)
(maximize mem_7fffffffffef740_3731_248)
(minimize mem_7fffffffffef740_3731_248)
(minimize filesize_file_0_/proc/self/loginuid_88_64)
(maximize args_1_8)
(minimize strlen_7111_64)
(minimize mem_7fffffffffef058_391_64)
(maximize mem_7fffffffffef420_168_64)
(minimize syscall_stub_ioctl_94_32)
(minimize strlen_83_64)
(maximize access_2116_32)
(maximize strlen_842_64)
(maximize syscall_stub_newfstatat_187_64)
(minimize syscall_stub_newfstatat_119_64)
(minimize access_3089_32)
(maximize strlen_7111_64)
(minimize strlen_85_64)
(minimize access_2116_32)
(maximize strncmp_ret_86_32)
(minimize strncmp_ret_86_32)
(minimize strncmp_ret_84_32)
(check-sat)
(get-objectives)
